1 46 36 145 64 56 54 20 11 58 125 147 49 146 44 80 118 131 26 113 103 13 73 133 109 70 34 23 114 51 8 137 63 38 33 39 15 100 92 31 83 37 97 150 59 129 81 74 29 77 110 143 105 5 2 40 135 79 41 87 115 102 32 55 88 140 72 106 122 142 130 117 139 95 35 4 90 10 76 128 62 50 121 67 99 42 107 57 136 101 82 7 3 84 71 45 112 104 93 124 18 68 24 94 30 141 119 138 91 60 126 52 53 28 123 9 86 127 75 12 21 69 22 6 120 108 61 25 149 132 111 85 17 66 89 65 144 78 148 43 134 116 14 47 96 27 98 16 48 19
